NAME          COPTPROB
OBJSENSE
  MIN
ROWS
 N  __OBJ___
 L  C36     
 L  C45     
 L  C49     
 L  C63     
 L  C65     
 L  C93     
 L  C103    
 L  C110    
 L  C117    
 L  C128    
 L  C137    
 L  C148    
 L  C155    
 L  C181    
COLUMNS
    MARKER    'MARKER'                 'INTORG'
    x89       __OBJ___  379
    x89       C137      -1
    x89       C181      -1
    x127      __OBJ___  273
    x127      C128      -1
    x133      __OBJ___  35
    x133      C49       -1
    x160      __OBJ___  155
    x160      C148      -1
    x167      __OBJ___  430
    x167      C117      -1
    x167      C128      -1
    x204      __OBJ___  198
    x204      C110      -1
    x265      __OBJ___  412
    x265      C36       -1
    x265      C103      -1
    x272      __OBJ___  265
    x272      C63       -1
    x283      __OBJ___  231
    x283      C117      -1
    x299      __OBJ___  417
    x299      C45       -1
    x299      C65       -1
    x356      __OBJ___  237
    x356      C36       -1
    x356      C93       -1
    x441      __OBJ___  547
    x441      C103      -1
    x441      C137      -1
    x477      __OBJ___  255
    x477      C110      -1
    x477      C148      -1
    x557      __OBJ___  88
    x557      C93       -1
    x583      __OBJ___  550
    x583      C93       -1
    x583      C155      -1
    x627      __OBJ___  346
    x627      C110      -1
    x627      C137      -1
    x678      __OBJ___  588
    x678      C155      -1
    x678      C181      -1
    x698      __OBJ___  405
    x698      C63       -1
    x698      C117      -1
    x712      __OBJ___  48
    x712      C45       -1
    x712      C49       -1
    x751      __OBJ___  278
    x751      C49       -1
    x751      C103      -1
    x756      __OBJ___  65
    x756      C181      -1
    x797      __OBJ___  411
    x797      C128      -1
    x797      C148      -1
    x798      __OBJ___  490
    x798      C63       -1
    x798      C65       -1
    MARKER    'MARKER'                 'INTEND'
RHS
    RHS       __OBJ___  -17669
    RHS       C36       -1
    RHS       C45       -1
    RHS       C49       -1
    RHS       C63       -1
    RHS       C65       -1
    RHS       C93       -1
    RHS       C103      -1
    RHS       C110      -1
    RHS       C117      -1
    RHS       C128      -1
    RHS       C137      -1
    RHS       C148      -1
    RHS       C155      -1
    RHS       C181      -1
BOUNDS
 UP BOUND     x89       1
 UP BOUND     x127      1
 UP BOUND     x133      1
 UP BOUND     x160      1
 UP BOUND     x167      1
 UP BOUND     x204      1
 UP BOUND     x265      1
 UP BOUND     x272      1
 UP BOUND     x283      1
 UP BOUND     x299      1
 UP BOUND     x356      1
 UP BOUND     x441      1
 UP BOUND     x477      1
 UP BOUND     x557      1
 UP BOUND     x583      1
 UP BOUND     x627      1
 UP BOUND     x678      1
 UP BOUND     x698      1
 UP BOUND     x712      1
 UP BOUND     x751      1
 UP BOUND     x756      1
 UP BOUND     x797      1
 UP BOUND     x798      1
ENDATA
